CPXPARAM_TimeLimit                               3600
CPXPARAM_Read_DataCheck                          1
Parallel mode: deterministic, using up to 8 threads for concurrent optimization.
Tried aggregator 1 time.
LP Presolve eliminated 237 rows and 0 columns.
Reduced LP has 160543 rows, 72601 columns, and 753886 nonzeros.
Presolve time = 0.07 sec. (116.61 ticks)

Iteration log . . .
Iteration:     1   Dual objective     =          1207.000000
Perturbation started.
Iteration:   489   Dual objective     =          1207.000000
Iteration:   798   Dual objective     =          1207.005469
Iteration:   976   Dual objective     =          1207.007889
Initializing dual steep norms . . .
Iteration:   977   Dual objective     =          1207.008175
Iteration:  1726   Dual objective     =          1207.009438
Markowitz threshold set to 0.1
Iteration:  1798   Dual objective     =          1207.009468
Iteration:  2131   Dual objective     =          1207.011795
Iteration:  3140   Dual objective     =          1207.015286
Iteration:  4417   Dual objective     =          1211.783050
Iteration:  5200   Dual objective     =          1211.783705
Iteration:  6932   Dual objective     =          1211.786701
Iteration:  7695   Dual objective     =          1211.787387
Iteration:  9218   Dual objective     =          1211.790170
Iteration: 10069   Dual objective     =          1211.791431
Iteration: 11689   Dual objective     =          1211.794014
Iteration: 12805   Dual objective     =          1211.795271
Iteration: 13366   Dual objective     =          1211.795856
Iteration: 14793   Dual objective     =          1211.800350
Iteration: 15475   Dual objective     =          1211.801393
Iteration: 16936   Dual objective     =          1211.803077
Iteration: 17891   Dual objective     =          1211.805165
Iteration: 19432   Dual objective     =          1211.808348
Iteration: 20430   Dual objective     =          1211.809690
Iteration: 21189   Dual objective     =          1211.810971
Iteration: 22349   Dual objective     =          1261.236576
Iteration: 23535   Dual objective     =          1261.237545
Iteration: 24779   Dual objective     =          1261.991257
Iteration: 25817   Dual objective     =          1261.991484
Iteration: 26864   Dual objective     =          1261.991615
Iteration: 27890   Dual objective     =          1261.991782
Iteration: 28969   Dual objective     =          1261.991943
Iteration: 30223   Dual objective     =          1261.993538
Iteration: 31411   Dual objective     =          1261.993869
Iteration: 32828   Dual objective     =          1261.994191
Iteration: 33683   Dual objective     =          1261.994358
Iteration: 34913   Dual objective     =          1261.994482
Iteration: 35924   Dual objective     =          1261.994570
Iteration: 36971   Dual objective     =          1261.995939
Iteration: 37735   Dual objective     =          1261.996026
Iteration: 38670   Dual objective     =          1261.996116
Iteration: 39730   Dual objective     =          1265.268211
Iteration: 40839   Dual objective     =          1265.269597
Iteration: 41960   Dual objective     =          1265.269690
Iteration: 43075   Dual objective     =          1265.269776
Iteration: 44167   Dual objective     =          1265.269851
Iteration: 45186   Dual objective     =          1265.269942
Iteration: 46084   Dual objective     =          1269.718779
Iteration: 46956   Dual objective     =          1269.718850
Iteration: 47960   Dual objective     =          1270.987926
Iteration: 48862   Dual objective     =          1270.988047
Iteration: 49909   Dual objective     =          1270.988207
Iteration: 50837   Dual objective     =          1272.428587
Elapsed time = 19.03 sec. (10000.06 ticks, 51137 iterations)
Iteration: 51728   Dual objective     =          1272.428654
Iteration: 52528   Dual objective     =          1272.428721
Iteration: 53345   Dual objective     =          1273.434930
Iteration: 54227   Dual objective     =          1273.435019
Iteration: 55190   Dual objective     =          1273.435083
Iteration: 56271   Dual objective     =          1273.435301
Iteration: 57255   Dual objective     =          1273.435408
Iteration: 58121   Dual objective     =          1273.435475
Iteration: 58987   Dual objective     =          1273.435560
Iteration: 59942   Dual objective     =          1273.435692
Iteration: 60811   Dual objective     =          1273.437428
Iteration: 61546   Dual objective     =          1273.437479
Iteration: 62325   Dual objective     =          1273.437542
Iteration: 63104   Dual objective     =          1273.437608
Iteration: 63903   Dual objective     =          1273.437685
Iteration: 64806   Dual objective     =          1273.437758
Iteration: 65710   Dual objective     =          1273.437829
Iteration: 66569   Dual objective     =          1273.437918
Iteration: 67462   Dual objective     =          1273.437980
Iteration: 68275   Dual objective     =          1273.438043
Iteration: 69150   Dual objective     =          1273.993586
Iteration: 70013   Dual objective     =          1273.993687
Iteration: 70850   Dual objective     =          1273.993747
Iteration: 71580   Dual objective     =          1273.993805
Iteration: 72355   Dual objective     =          1273.993863
Iteration: 73133   Dual objective     =          1273.993942
Iteration: 73911   Dual objective     =          1273.993994
Iteration: 74756   Dual objective     =          1273.994063
Iteration: 75594   Dual objective     =          1273.994110
Iteration: 76486   Dual objective     =          1273.994223
Iteration: 77211   Dual objective     =          1273.994264
Iteration: 78073   Dual objective     =          1273.994364
Iteration: 78795   Dual objective     =          1273.994405
Iteration: 79580   Dual objective     =          1273.994467
Iteration: 80227   Dual objective     =          1273.994507
Iteration: 80953   Dual objective     =          1273.995557
Iteration: 81716   Dual objective     =          1273.995597
Iteration: 82516   Dual objective     =          1273.995666
Iteration: 83378   Dual objective     =          1273.995725
Iteration: 84163   Dual objective     =          1273.995800
Iteration: 84981   Dual objective     =          1273.995848
Iteration: 85754   Dual objective     =          1273.995902
Iteration: 86497   Dual objective     =          1273.995942
Iteration: 87227   Dual objective     =          1273.995998
Iteration: 88084   Dual objective     =          1273.996048
Iteration: 88889   Dual objective     =          1273.996190
Iteration: 89686   Dual objective     =          1273.996261
Iteration: 90473   Dual objective     =          1273.996315
Iteration: 91196   Dual objective     =          1274.236913
Elapsed time = 39.84 sec. (20000.11 ticks, 91421 iterations)
Iteration: 91979   Dual objective     =          1275.590076
Iteration: 92625   Dual objective     =          1275.590115
Iteration: 93272   Dual objective     =          1275.590163
Iteration: 93904   Dual objective     =          1275.590191
Iteration: 94537   Dual objective     =          1275.590239
Iteration: 95166   Dual objective     =          1275.590271
Iteration: 95799   Dual objective     =          1275.590315
Iteration: 96455   Dual objective     =          1275.590341
Iteration: 97150   Dual objective     =          1275.590384
Iteration: 97927   Dual objective     =          1275.590418
Iteration: 98687   Dual objective     =          1275.590495
Iteration: 99442   Dual objective     =          1275.590534
Iteration: 100231   Dual objective     =          1275.590619
Iteration: 100879   Dual objective     =          1275.593224
Iteration: 101500   Dual objective     =          1275.593260
Iteration: 102144   Dual objective     =          1275.593291
Iteration: 102837   Dual objective     =          1275.593339
Iteration: 103429   Dual objective     =          1275.593366
Iteration: 104023   Dual objective     =          1275.593393
Iteration: 104632   Dual objective     =          1275.593421
Iteration: 105249   Dual objective     =          1275.593462
Iteration: 105877   Dual objective     =          1275.593483
Iteration: 106473   Dual objective     =          1275.593500
Iteration: 107392   Dual objective     =          1275.593594
Iteration: 108080   Dual objective     =          1275.593625
Iteration: 108732   Dual objective     =          1275.593644
Iteration: 109388   Dual objective     =          1275.593662
Iteration: 110059   Dual objective     =          1275.593677
Iteration: 110695   Dual objective     =          1275.593710
Iteration: 111277   Dual objective     =          1275.593724
Iteration: 111875   Dual objective     =          1275.593738
Iteration: 112496   Dual objective     =          1275.593747
Iteration: 113057   Dual objective     =          1275.593758
Iteration: 113654   Dual objective     =          1275.593765
Iteration: 114135   Dual objective     =          1275.593769
Iteration: 114674   Dual objective     =          1275.593773
Iteration: 115204   Dual objective     =          1275.593775
Iteration: 116332   Dual objective     =          1276.029231
Iteration: 116996   Dual objective     =          1276.029272
Iteration: 117611   Dual objective     =          1276.029298
Iteration: 118329   Dual objective     =          1276.029322
Iteration: 118909   Dual objective     =          1276.029336
Iteration: 119551   Dual objective     =          1276.029350
Iteration: 120106   Dual objective     =          1276.029357
Iteration: 120651   Dual objective     =          1276.044685
Iteration: 121187   Dual objective     =          1276.044690
Iteration: 121679   Dual objective     =          1276.044694
Iteration: 122201   Dual objective     =          1276.044696
Iteration: 122722   Dual objective     =          1276.050811
Elapsed time = 67.43 sec. (30000.16 ticks, 123285 iterations)
Iteration: 123767   Dual objective     =          1276.267409
Iteration: 124478   Dual objective     =          1276.267442
Iteration: 125122   Dual objective     =          1276.267462
Iteration: 125812   Dual objective     =          1276.267483
Iteration: 126436   Dual objective     =          1276.267494
Iteration: 127007   Dual objective     =          1276.267502
Iteration: 127605   Dual objective     =          1276.267508
Iteration: 128139   Dual objective     =          1276.267511
Iteration: 128645   Dual objective     =          1276.267513
Iteration: 129188   Dual objective     =          1276.267514
Iteration: 130102   Dual objective     =          1276.389819
Iteration: 130859   Dual objective     =          1276.389848
Iteration: 131630   Dual objective     =          1276.389869
Iteration: 132273   Dual objective     =          1276.389882
Iteration: 133007   Dual objective     =          1276.389894
Iteration: 133687   Dual objective     =          1276.389902
Iteration: 134295   Dual objective     =          1276.389907
Iteration: 134807   Dual objective     =          1276.389910
Iteration: 135348   Dual objective     =          1276.389912
Iteration: 135829   Dual objective     =          1276.389914
Iteration: 136633   Dual objective     =          1276.389950
Iteration: 137305   Dual objective     =          1276.389969
Iteration: 137982   Dual objective     =          1276.389984
Iteration: 138620   Dual objective     =          1276.389995
Iteration: 139265   Dual objective     =          1276.390005
Iteration: 139823   Dual objective     =          1276.390009
Iteration: 140411   Dual objective     =          1276.390016
Iteration: 140986   Dual objective     =          1276.390918
Iteration: 141507   Dual objective     =          1276.390919
Iteration: 142339   Dual objective     =          1276.473772
Iteration: 143054   Dual objective     =          1276.473791
Iteration: 143652   Dual objective     =          1276.473802
Iteration: 144296   Dual objective     =          1276.473813
Iteration: 144895   Dual objective     =          1276.473820
Iteration: 145511   Dual objective     =          1276.473824
Iteration: 146074   Dual objective     =          1276.473828
Iteration: 146603   Dual objective     =          1276.473830
Iteration: 147102   Dual objective     =          1276.473831
Iteration: 147963   Dual objective     =          1276.523888
Iteration: 148581   Dual objective     =          1276.523901
Iteration: 149159   Dual objective     =          1276.523911
Iteration: 149756   Dual objective     =          1276.523924
Iteration: 150301   Dual objective     =          1276.523928
Iteration: 150863   Dual objective     =          1276.523931
Iteration: 151449   Dual objective     =          1276.523934
Iteration: 151989   Dual objective     =          1276.523935
Iteration: 152789   Dual objective     =          1276.523954
Iteration: 153377   Dual objective     =          1276.523964
Iteration: 153972   Dual objective     =          1276.523972
Iteration: 154567   Dual objective     =          1276.523977
Iteration: 155238   Dual objective     =          1276.523982
Elapsed time = 96.63 sec. (40000.21 ticks, 155669 iterations)
Iteration: 155825   Dual objective     =          1276.523985
Iteration: 156377   Dual objective     =          1276.523988
Iteration: 156877   Dual objective     =          1276.523988
Iteration: 157529   Dual objective     =          1276.524024
Iteration: 158212   Dual objective     =          1276.524085
Iteration: 158830   Dual objective     =          1276.524111
Iteration: 159439   Dual objective     =          1276.524139
Iteration: 160054   Dual objective     =          1276.524293
Iteration: 160595   Dual objective     =          1276.524911
Iteration: 161178   Dual objective     =          1276.532400
Iteration: 161835   Dual objective     =          1276.535198
Iteration: 162538   Dual objective     =          1276.535261
Iteration: 163097   Dual objective     =          1276.540893
Iteration: 163697   Dual objective     =          1276.541127
Iteration: 164177   Dual objective     =          1276.541247
Iteration: 164916   Dual objective     =          1276.544947
Iteration: 165713   Dual objective     =          1276.544996
Iteration: 166399   Dual objective     =          1276.545018
Iteration: 167028   Dual objective     =          1276.545038
Iteration: 167751   Dual objective     =          1276.551770
Iteration: 168399   Dual objective     =          1276.551790
Iteration: 168875   Dual objective     =          1276.551871
Iteration: 169397   Dual objective     =          1276.551878
Iteration: 169854   Dual objective     =          1276.551884
Iteration: 170301   Dual objective     =          1276.551888
Iteration: 170743   Dual objective     =          1276.551891
Iteration: 171250   Dual objective     =          1276.551894
Iteration: 171722   Dual objective     =          1276.551896
Iteration: 172166   Dual objective     =          1276.551897
Iteration: 172626   Dual objective     =          1276.551898
Iteration: 173516   Dual objective     =          1276.552050
Iteration: 174202   Dual objective     =          1276.552096
Iteration: 174853   Dual objective     =          1276.552115
Iteration: 175488   Dual objective     =          1276.552130
Iteration: 176120   Dual objective     =          1276.552147
Iteration: 176681   Dual objective     =          1276.552160
Iteration: 177227   Dual objective     =          1276.552170
Iteration: 177719   Dual objective     =          1276.552179
Iteration: 178269   Dual objective     =          1276.552182
Iteration: 178749   Dual objective     =          1276.552183
Iteration: 179248   Dual objective     =          1276.552185
Iteration: 179974   Dual objective     =          1276.552240
Iteration: 180697   Dual objective     =          1276.552912
Iteration: 181347   Dual objective     =          1276.552923
Iteration: 181936   Dual objective     =          1276.552933
Elapsed time = 126.90 sec. (50000.25 ticks, 182231 iterations)
Iteration: 182594   Dual objective     =          1276.552945
Iteration: 183233   Dual objective     =          1276.553002
Iteration: 184028   Dual objective     =          1276.554138
Iteration: 184669   Dual objective     =          1276.554158
Iteration: 185211   Dual objective     =          1276.554168
Iteration: 185714   Dual objective     =          1276.554175
Iteration: 186320   Dual objective     =          1276.554567
Iteration: 187023   Dual objective     =          1276.554634
Iteration: 187627   Dual objective     =          1276.554665
Iteration: 188188   Dual objective     =          1276.554708
Iteration: 188855   Dual objective     =          1276.554734
Iteration: 189413   Dual objective     =          1276.554752
Iteration: 189909   Dual objective     =          1276.554762
Iteration: 190411   Dual objective     =          1276.554771
Iteration: 190909   Dual objective     =          1276.554777
Iteration: 191470   Dual objective     =          1276.554782
Iteration: 191986   Dual objective     =          1276.554785
Iteration: 192457   Dual objective     =          1276.554787
Iteration: 193043   Dual objective     =          1276.555217
Iteration: 193865   Dual objective     =          1276.555475
Iteration: 194605   Dual objective     =          1276.555540
Iteration: 195306   Dual objective     =          1276.555573
Iteration: 195991   Dual objective     =          1276.555610
Iteration: 196564   Dual objective     =          1276.555635
Iteration: 197237   Dual objective     =          1276.555665
Iteration: 197927   Dual objective     =          1276.555683
Iteration: 198483   Dual objective     =          1276.555693
Iteration: 199171   Dual objective     =          1276.555773
Iteration: 199919   Dual objective     =          1276.556464
Iteration: 200657   Dual objective     =          1276.556312
Iteration: 201212   Dual objective     =          1276.556347
Iteration: 201784   Dual objective     =          1276.556364
Iteration: 202264   Dual objective     =          1276.556375
Iteration: 202919   Dual objective     =          1276.556391
Iteration: 203484   Dual objective     =          1276.556398
Iteration: 204081   Dual objective     =          1276.556401
Iteration: 204821   Dual objective     =          1276.556851
Iteration: 205517   Dual objective     =          1276.556915
Iteration: 206192   Dual objective     =          1276.556943
Iteration: 206824   Dual objective     =          1276.556959
Iteration: 207453   Dual objective     =          1276.556970
Iteration: 208072   Dual objective     =          1276.556986
Iteration: 208630   Dual objective     =          1276.557002
Iteration: 209145   Dual objective     =          1276.557162
Iteration: 209782   Dual objective     =          1276.557184
Iteration: 210438   Dual objective     =          1276.557195
Elapsed time = 154.37 sec. (60000.28 ticks, 210964 iterations)
Iteration: 210981   Dual objective     =          1276.557201
Iteration: 211578   Dual objective     =          1276.557210
Iteration: 212105   Dual objective     =          1276.557216
Iteration: 212655   Dual objective     =          1276.557261
Iteration: 213200   Dual objective     =          1276.557276
Iteration: 213832   Dual objective     =          1276.557285
Iteration: 214516   Dual objective     =          1276.557296
Iteration: 215099   Dual objective     =          1276.557300
Iteration: 215640   Dual objective     =          1276.557306
Iteration: 216190   Dual objective     =          1276.557317
Iteration: 216717   Dual objective     =          1276.557323
Iteration: 217210   Dual objective     =          1276.557329
Iteration: 217708   Dual objective     =          1276.557332
Iteration: 218224   Dual objective     =          1276.557337
Iteration: 218815   Dual objective     =          1276.557346
Iteration: 219358   Dual objective     =          1276.557353
Iteration: 219835   Dual objective     =          1276.557356
Iteration: 220401   Dual objective     =          1276.557362
Iteration: 221051   Dual objective     =          1276.557137
Iteration: 221585   Dual objective     =          1276.557142
Iteration: 222110   Dual objective     =          1276.557147
Iteration: 222706   Dual objective     =          1276.557153
Iteration: 223256   Dual objective     =          1276.557158
Iteration: 223738   Dual objective     =          1276.557159
Iteration: 224357   Dual objective     =          1276.557168
Iteration: 224879   Dual objective     =          1276.557171
Iteration: 225385   Dual objective     =          1276.557173
Iteration: 226023   Dual objective     =          1276.557182
Iteration: 226563   Dual objective     =          1276.557184
Iteration: 227107   Dual objective     =          1276.557191
Iteration: 227771   Dual objective     =          1276.557310
Iteration: 228420   Dual objective     =          1276.557342
Iteration: 229066   Dual objective     =          1276.557373
Iteration: 229790   Dual objective     =          1276.557377
Removing perturbation.
Iteration: 229990    Objective     =          1276.473567
Iteration: 230333    Objective     =          1276.473497
Iteration: 230466    Objective     =          1276.473475
Iteration: 230808    Objective     =          1276.473371
Iteration: 231162    Objective     =          1276.473234
Iteration: 231519    Objective     =          1276.473063
Elapsed time = 183.83 sec. (70000.56 ticks, 231830 iterations)
Iteration: 231873    Objective     =          1276.472912
Iteration: 232235    Objective     =          1276.472769
Iteration: 232590   Dual objective     =          1276.472646
Reperturbation started.
Iteration: 232791   Dual objective     =          1276.473247
Iteration: 233475   Dual objective     =          1276.473249
Iteration: 234235   Dual objective     =          1276.473255
Iteration: 234939   Dual objective     =          1276.473257
Iteration: 235701   Dual objective     =          1276.473258
Iteration: 236386   Dual objective     =          1276.473259
Iteration: 237098   Dual objective     =          1276.473259
Iteration: 237831   Dual objective     =          1276.473260
Iteration: 238495   Dual objective     =          1276.473261
Iteration: 239145   Dual objective     =          1276.473261
Iteration: 239613   Dual objective     =          1276.473262
Iteration: 240193   Dual objective     =          1276.473263
Iteration: 240751   Dual objective     =          1276.473264
Iteration: 241326   Dual objective     =          1276.473264
Iteration: 241866   Dual objective     =          1276.473265
Iteration: 242473   Dual objective     =          1276.473265
Iteration: 243022   Dual objective     =          1276.473266
Iteration: 243556   Dual objective     =          1276.473266
Iteration: 244093   Dual objective     =          1276.473267
Iteration: 244553   Dual objective     =          1276.473267
Iteration: 245100   Dual objective     =          1276.473268
Iteration: 245637   Dual objective     =          1276.473268
Iteration: 246112   Dual objective     =          1276.473268
Iteration: 246686   Dual objective     =          1276.473269
Iteration: 247259   Dual objective     =          1276.473270
Iteration: 247852   Dual objective     =          1276.473271
Iteration: 248403   Dual objective     =          1276.473271
Iteration: 248939   Dual objective     =          1276.473272
Iteration: 249559   Dual objective     =          1276.473273
Iteration: 250186   Dual objective     =          1276.473274
Iteration: 250804   Dual objective     =          1276.473274
Iteration: 251403   Dual objective     =          1276.473275
Iteration: 252071   Dual objective     =          1276.473275
Iteration: 252640   Dual objective     =          1276.473275
Iteration: 253211   Dual objective     =          1276.473270
Iteration: 253874   Dual objective     =          1276.473284
Iteration: 254424   Dual objective     =          1276.473285
Iteration: 254986   Dual objective     =          1276.473286
Iteration: 255538   Dual objective     =          1276.473287
Iteration: 256128   Dual objective     =          1276.473287
Iteration: 256734   Dual objective     =          1276.473287
Elapsed time = 209.66 sec. (80000.74 ticks, 257023 iterations)
Iteration: 257308   Dual objective     =          1276.473288
Iteration: 257864   Dual objective     =          1276.473288
Iteration: 258436   Dual objective     =          1276.473289
Iteration: 259000   Dual objective     =          1276.473289
Iteration: 259530   Dual objective     =          1276.473289
Iteration: 260153   Dual objective     =          1276.473290
Iteration: 260725   Dual objective     =          1276.473291
Iteration: 261279   Dual objective     =          1276.473292
Iteration: 261858   Dual objective     =          1276.473292
Iteration: 262413   Dual objective     =          1276.473293
Iteration: 262997   Dual objective     =          1276.473293
Iteration: 263539   Dual objective     =          1276.473294
Iteration: 264117   Dual objective     =          1276.473294
Iteration: 264712   Dual objective     =          1276.473295
Iteration: 265276   Dual objective     =          1276.473295
Iteration: 265845   Dual objective     =          1276.473295
Iteration: 266391   Dual objective     =          1276.473296
Iteration: 266954   Dual objective     =          1276.473296
Iteration: 267553   Dual objective     =          1276.473296
Iteration: 268106   Dual objective     =          1276.473297
Iteration: 268687   Dual objective     =          1276.473298
Iteration: 269297   Dual objective     =          1276.473299
Iteration: 269837   Dual objective     =          1276.473299
Iteration: 270383   Dual objective     =          1276.473300
Iteration: 270968   Dual objective     =          1276.473300
Iteration: 271510   Dual objective     =          1276.473300
Iteration: 272103   Dual objective     =          1276.473300
Iteration: 272627   Dual objective     =          1276.473301
Iteration: 273095   Dual objective     =          1276.473278
Iteration: 273551   Dual objective     =          1276.473279
Iteration: 274085   Dual objective     =          1276.473279
Iteration: 274707   Dual objective     =          1276.473280
Iteration: 275303   Dual objective     =          1276.473281
Iteration: 275921   Dual objective     =          1276.473282
Iteration: 276541   Dual objective     =          1276.473282
Iteration: 277079   Dual objective     =          1276.473283
Iteration: 277664   Dual objective     =          1276.473283
Iteration: 278215   Dual objective     =          1276.473283
Iteration: 278745   Dual objective     =          1276.473284
Iteration: 279257   Dual objective     =          1276.473284
Iteration: 279795   Dual objective     =          1276.473284
Iteration: 280348   Dual objective     =          1276.473285
Iteration: 280922   Dual objective     =          1276.473286
Iteration: 281478   Dual objective     =          1276.473286
Iteration: 282079   Dual objective     =          1276.473287
Iteration: 282622   Dual objective     =          1276.473288
Iteration: 283173   Dual objective     =          1276.473288
Elapsed time = 235.36 sec. (90011.33 ticks, 283737 iterations)
Iteration: 283737   Dual objective     =          1276.473289
Iteration: 284306   Dual objective     =          1276.473289
Iteration: 284823   Dual objective     =          1276.473289
Iteration: 285361   Dual objective     =          1276.473289
Iteration: 285974   Dual objective     =          1276.473290
Iteration: 286558   Dual objective     =          1276.473291
Iteration: 287138   Dual objective     =          1276.473292
Iteration: 287697   Dual objective     =          1276.473292
Iteration: 288258   Dual objective     =          1276.473293
Iteration: 288745   Dual objective     =          1276.473293
Iteration: 289226   Dual objective     =          1276.473293
Iteration: 289712   Dual objective     =          1276.473294
Iteration: 290225   Dual objective     =          1276.473294
Iteration: 290802   Dual objective     =          1276.473294
Iteration: 291341   Dual objective     =          1276.473295
Iteration: 291927   Dual objective     =          1276.473295
Iteration: 292511   Dual objective     =          1276.473296
Iteration: 293055   Dual objective     =          1276.473283
Iteration: 293567   Dual objective     =          1276.473283
Iteration: 294071   Dual objective     =          1276.473284
Iteration: 294578   Dual objective     =          1276.473284
Iteration: 295112   Dual objective     =          1276.473285
Iteration: 295761   Dual objective     =          1276.473285
Iteration: 296312   Dual objective     =          1276.473286
Iteration: 296915   Dual objective     =          1276.473287
Iteration: 297520   Dual objective     =          1276.473287
Iteration: 298100   Dual objective     =          1276.473287
Iteration: 298619   Dual objective     =          1276.473288
Iteration: 299157   Dual objective     =          1276.473288
Iteration: 299725   Dual objective     =          1276.473289
Iteration: 300271   Dual objective     =          1276.473289
Iteration: 300776   Dual objective     =          1276.473289
Iteration: 301342   Dual objective     =          1276.473290
Iteration: 301852   Dual objective     =          1276.473290
Iteration: 302386   Dual objective     =          1276.473290
Iteration: 302975   Dual objective     =          1276.473291
Iteration: 303549   Dual objective     =          1276.473292
Iteration: 304112   Dual objective     =          1276.473292
Iteration: 304652   Dual objective     =          1276.473292
Iteration: 305180   Dual objective     =          1276.473293
Iteration: 305734   Dual objective     =          1276.473294
Iteration: 306294   Dual objective     =          1276.473294
Iteration: 306854   Dual objective     =          1276.473294
Elapsed time = 261.16 sec. (100011.42 ticks, 307123 iterations)
Iteration: 307371   Dual objective     =          1276.473295
Iteration: 307943   Dual objective     =          1276.473295
Iteration: 308527   Dual objective     =          1276.473297
Iteration: 309055   Dual objective     =          1276.473297
Iteration: 309615   Dual objective     =          1276.473297
Iteration: 310161   Dual objective     =          1276.473298
Iteration: 310683   Dual objective     =          1276.473299
Iteration: 311211   Dual objective     =          1276.473299
Iteration: 311756   Dual objective     =          1276.473299
Iteration: 312266   Dual objective     =          1276.473300
Iteration: 312753   Dual objective     =          1276.473300
Iteration: 313255   Dual objective     =          1276.473295
Iteration: 313764   Dual objective     =          1276.473296
Iteration: 314278   Dual objective     =          1276.473296
Iteration: 314771   Dual objective     =          1276.473296
Iteration: 315315   Dual objective     =          1276.473297
Iteration: 315824   Dual objective     =          1276.473297
Iteration: 316323   Dual objective     =          1276.473297
Iteration: 316865   Dual objective     =          1276.473297
Removing perturbation.
Iteration: 317049   Scaled dual infeas =             0.000041
Iteration: 317104   Dual objective     =          1276.459731
Reperturbation started.
Iteration: 317305   Dual objective     =          1276.459731
Iteration: 318097   Dual objective     =          1276.473248
Iteration: 318823   Dual objective     =          1276.473248
Iteration: 319504   Dual objective     =          1276.473248
Iteration: 320146   Dual objective     =          1276.473249
Iteration: 320869   Dual objective     =          1276.473249
Iteration: 321639   Dual objective     =          1276.473249
Iteration: 322433   Dual objective     =          1276.473249
Elapsed time = 288.86 sec. (110011.51 ticks, 323114 iterations)
Iteration: 323195   Dual objective     =          1276.473249
Iteration: 323916   Dual objective     =          1276.473250
Iteration: 324569   Dual objective     =          1276.473250
Iteration: 325372   Dual objective     =          1276.473250
Iteration: 326314   Dual objective     =          1276.473250
Iteration: 327201   Dual objective     =          1276.473250
Iteration: 328047   Dual objective     =          1276.473251
Iteration: 328952   Dual objective     =          1276.473251
Iteration: 329817   Dual objective     =          1276.473251
Iteration: 330652   Dual objective     =          1276.473251
Iteration: 331470   Dual objective     =          1276.473251
Iteration: 332363   Dual objective     =          1276.473251
Iteration: 333271   Dual objective     =          1276.473252
Iteration: 334181   Dual objective     =          1276.473252
Iteration: 335052   Dual objective     =          1276.473252
Iteration: 335849   Dual objective     =          1276.473253
Iteration: 336593   Dual objective     =          1276.473253
Iteration: 337319   Dual objective     =          1276.473253
Iteration: 338132   Dual objective     =          1276.473253
Iteration: 338999   Dual objective     =          1276.473253
Iteration: 339760   Dual objective     =          1276.473253
Iteration: 340599   Dual objective     =          1276.473253
Iteration: 341370   Dual objective     =          1276.473253
Elapsed time = 316.21 sec. (120011.95 ticks, 341863 iterations)
Iteration: 342155   Dual objective     =          1276.473253
Iteration: 342969   Dual objective     =          1276.473253
Iteration: 343756   Dual objective     =          1276.473253
Iteration: 344619   Dual objective     =          1276.473253
Iteration: 345450   Dual objective     =          1276.473254
Iteration: 346285   Dual objective     =          1276.473254
Iteration: 347049   Dual objective     =          1276.473254
Iteration: 347869   Dual objective     =          1276.473254
Iteration: 348757   Dual objective     =          1276.473254
Iteration: 349564   Dual objective     =          1276.473254
Iteration: 350485   Dual objective     =          1276.473254
Iteration: 351372   Dual objective     =          1276.473254
Iteration: 352265   Dual objective     =          1276.473254
Iteration: 353023   Dual objective     =          1276.473254
Iteration: 353795   Dual objective     =          1276.473254
Iteration: 354397   Dual objective     =          1276.473254
Iteration: 354973   Dual objective     =          1276.473254
Iteration: 355588   Dual objective     =          1276.473255
Elapsed time = 339.20 sec. (130012.25 ticks, 355709 iterations)
Iteration: 356164   Dual objective     =          1276.473255
Iteration: 356743   Dual objective     =          1276.473255
Iteration: 357289   Dual objective     =          1276.473255
Iteration: 357859   Dual objective     =          1276.473255
Iteration: 358408   Dual objective     =          1276.473255
Iteration: 358976   Dual objective     =          1276.473255
Iteration: 359539   Dual objective     =          1276.473255
Iteration: 360106   Dual objective     =          1276.473255
Elapsed time = 360.88 sec. (140012.97 ticks, 360588 iterations)
Iteration: 360662   Dual objective     =          1276.473255
Iteration: 361221   Dual objective     =          1276.473256
Iteration: 361778   Dual objective     =          1276.473256
Iteration: 362420   Dual objective     =          1276.473256
Iteration: 362984   Dual objective     =          1276.473256
Iteration: 363618   Dual objective     =          1276.473256
Iteration: 364232   Dual objective     =          1276.473256
Iteration: 364837   Dual objective     =          1276.473256
Iteration: 365437   Dual objective     =          1276.473256
Iteration: 366048   Dual objective     =          1276.473256
Iteration: 366600   Dual objective     =          1276.473256
Elapsed time = 381.95 sec. (150013.75 ticks, 367065 iterations)
Iteration: 367191   Dual objective     =          1276.473256
Iteration: 367824   Dual objective     =          1276.473256
Iteration: 368500   Dual objective     =          1276.473256
Removing perturbation.
Iteration: 368555   Scaled dual infeas =             0.000005
Iteration: 368646   Dual objective     =          1276.459731
Reperturbation started.
Iteration: 369448   Dual objective     =          1276.473247
Iteration: 370345   Dual objective     =          1276.473247
Iteration: 371104   Dual objective     =          1276.473247
Iteration: 371854   Dual objective     =          1276.473247
Iteration: 372521   Dual objective     =          1276.473247
Iteration: 373219   Dual objective     =          1276.473247
Iteration: 373975   Dual objective     =          1276.473247
Iteration: 374684   Dual objective     =          1276.473247
Iteration: 375347   Dual objective     =          1276.473247
Iteration: 376047   Dual objective     =          1276.473247
Iteration: 376734   Dual objective     =          1276.473247
Iteration: 377422   Dual objective     =          1276.473248
Iteration: 378131   Dual objective     =          1276.473248
Iteration: 378772   Dual objective     =          1276.473248
Iteration: 379482   Dual objective     =          1276.473248
Elapsed time = 408.99 sec. (160014.20 ticks, 380125 iterations)
Iteration: 380161   Dual objective     =          1276.473248
Iteration: 380865   Dual objective     =          1276.473248
Iteration: 381612   Dual objective     =          1276.473248
Iteration: 382349   Dual objective     =          1276.473248
Iteration: 383011   Dual objective     =          1276.473248
Iteration: 383699   Dual objective     =          1276.473248
Iteration: 384448   Dual objective     =          1276.473248
Iteration: 385173   Dual objective     =          1276.473248
Iteration: 385921   Dual objective     =          1276.473248
Iteration: 386718   Dual objective     =          1276.473248
Iteration: 387491   Dual objective     =          1276.473248
Iteration: 388224   Dual objective     =          1276.473248
Iteration: 388952   Dual objective     =          1276.473248
Iteration: 389654   Dual objective     =          1276.473248
Iteration: 390316   Dual objective     =          1276.473248
Iteration: 390924   Dual objective     =          1276.473248
Iteration: 391493   Dual objective     =          1276.473248
Iteration: 392045   Dual objective     =          1276.473248
Elapsed time = 433.13 sec. (170014.97 ticks, 392149 iterations)
Iteration: 392739   Dual objective     =          1276.473248
Removing perturbation.
Iteration: 393378   Dual objective     =          1276.473247
Perturbation started.
Iteration: 393478   Dual objective     =          1276.473247
Iteration: 393966   Dual objective     =          1276.483197
Iteration: 394350   Dual objective     =          1276.546936
Iteration: 394815   Dual objective     =          1276.608546
Iteration: 395332   Dual objective     =          1276.700236
Iteration: 395848   Dual objective     =          1276.793001
Iteration: 396377   Dual objective     =          1276.868407
Iteration: 396981   Dual objective     =          1277.097100
Iteration: 397635   Dual objective     =          1277.293328
Iteration: 398237   Dual objective     =          1277.354975
Iteration: 398741   Dual objective     =          1277.495320
Iteration: 399274   Dual objective     =          1277.823041
Iteration: 399743   Dual objective     =          1278.111940
Elapsed time = 457.23 sec. (180015.16 ticks, 399982 iterations)
Iteration: 400191   Dual objective     =          1278.399172
Iteration: 400639   Dual objective     =          1278.708522
Iteration: 401301   Dual objective     =          1278.889699
Iteration: 401880   Dual objective     =          1278.964352
Iteration: 402390   Dual objective     =          1279.191000
Iteration: 402986   Dual objective     =          1279.332362
Removing perturbation.
Elapsed time = 469.29 sec. (185369.32 ticks, 1 iterations)

Iteration log . . .
Iteration:     1   Dual objective     =          1276.473247

Dual simplex solved model.

